ALGO = Fast
EDIFF = 0.0001
ENCUT = 700.0
ISMEAR = -5
ISPIN = 2
LASPH = True
LCHARG = True
LORBIT = 11
LREAL = False
LWAVE = False
MAGMOM = 2*0.6
NELM = 100
NSW = 0
PREC = Accurate
SIGMA = 0.05
