pymatgen with grid density = 2765 / number of atoms
0
Gamma
11 11 11
