Na1 Cl1
1.0
   5.6399999999999997    0.0000000000000000    0.0000000000000000
   0.0000000000000000    5.6399999999999997    0.0000000000000000
   0.0000000000000000    0.0000000000000000    5.6399999999999997
Na Cl
1 1
direct
   0.0000000000000000    0.0000000000000000    0.0000000000000000 Na
   0.5000000000000000    0.5000000000000000    0.5000000000000000 Cl
